c This is QMaxSAT 2017 based on 14.07
c This is Glucose 3.0
c This is MiniSat 2.2.0
c WARNING: for repeatability, setting FPU to use double precision
c card = mrwto, comp = 0, pmodel = 0, narr = 5, mct = 99, verb = 0
cr firstCPXsol 0 0 0
c top = 824631
c |  Number of variables:    21218                                            |
c |  Number of clauses:      2084617                                          |
c |  Weight of hard clauses: 824631                                           |
c |  Number of soft clauses: 52430                                            |
c |  Number of unit soft clauses: 0                                           |
c |  Maximum Cardinality (by unit): 4597790      (0           )               |
c last restart ## conflicts  :  0 276 
o 1182 | cpuTime 0.208778 s
c Sum of weights = 919558
c A number of soft clauses remained = 10486
c MRWTO encoding for Pseudo-Boolean Constraints
c sizeMax=1182
c No.0 Divisor=11	generated by pow1
c No.1 Divisor=11	generated by pow1
c No.2 Divisor=11	generated by pow1
c p0= 11	p1= 11	p2= 11	
c number of digits = 4
c linkingVar[0].size = 11, linkingVar[1].size = 11, linkingVar[2].size = 10, linkingVar[3].size = 1, 
c Pseudo-Boolean Constraints: 211614 variables and 1822665 clauses
c Sum of weights = 919558
c A number of soft clauses remained = 10486
c MRWTO encoding for Pseudo-Boolean Constraints
c sizeMax=1182
c No.0 Divisor=11	generated by pow1
c No.1 Divisor=11	generated by pow1
c No.2 Divisor=11	generated by pow1
c p0= 11	p1= 11	p2= 11	
c number of digits = 4
c linkingVar[0].size = 11, linkingVar[1].size = 11, linkingVar[2].size = 10, linkingVar[3].size = 1, 
c Pseudo-Boolean Constraints: 211614 variables and 1822665 clauses
c Sum of weights = 919558
c A number of soft clauses remained = 10486
c MRWTO encoding for Pseudo-Boolean Constraints
c sizeMax=1182
c No.0 Divisor=11	generated by pow1
c No.1 Divisor=11	generated by pow1
c No.2 Divisor=11	generated by pow1
c p0= 11	p1= 11	p2= 11	
c number of digits = 4
c linkingVar[0].size = 11, linkingVar[1].size = 11, linkingVar[2].size = 10, linkingVar[3].size = 1, 
c Pseudo-Boolean Constraints: 211614 variables and 1822665 clauses
c Sum of weights = 919558
c A number of soft clauses remained = 10486
c MRWTO encoding for Pseudo-Boolean Constraints
c sizeMax=1182
c No.0 Divisor=11	generated by pow1
c No.1 Divisor=11	generated by pow1
c No.2 Divisor=11	generated by pow1
c p0= 11	p1= 11	p2= 11	
c number of digits = 4
c linkingVar[0].size = 11, linkingVar[1].size = 11, linkingVar[2].size = 10, linkingVar[3].size = 1, 
c Pseudo-Boolean Constraints: 211614 variables and 1822665 clauses
c Sum of weights = 919558
c A number of soft clauses remained = 10486
c MRWTO encoding for Pseudo-Boolean Constraints
c sizeMax=1182
c No.0 Divisor=11	generated by pow1
c No.1 Divisor=11	generated by pow1
c No.2 Divisor=11	generated by pow1
c p0= 11	p1= 11	p2= 11	
c number of digits = 4
c linkingVar[0].size = 11, linkingVar[1].size = 11, linkingVar[2].size = 10, linkingVar[3].size = 1, 
c Pseudo-Boolean Constraints: 211614 variables and 1822665 clauses
s UNKNOWN
c Search is stopped by a limit (maybe time-limit)
cr positiVarArr: [ | 6(1->2) | 110(1->3) | 214(1->4) | 318(1->5) | 422(1->6) | 526(2->7) | 630(3->8) | 734(4->9) | 838(5->10) | 942(6->11) | 1046(7->12) | 1150(8->13) | 1254(9->14) | 1358(10->15) | 1462(11->16) | 1566(12->17) | 1670(13->18) | 1774(14->19) | 1878(15->20) | 1982(16->21) | 2086(17->22) | 2190(18->23) | 2294(19->24) | 2398(20->25) | 2502(21->26) | 2606(22->27) | 2710(23->28) | 2814(24->29) | 2918(25->30) | 3022(26->31) | 3126(27->32) | 3230(28->33) | 3334(29->34) | 3438(30->35) | 3542(31->36) | 3646(32->37) | 3750(33->38) | 3854(34->39) | 3958(35->40) | 4062(36->41) | 4166(37->42) | 4270(38->43) | 4374(39->44) | 4478(40->45) | 4582(41->46) | 4686(42->47) | 4790(43->48) | 4894(44->49) | 4998(45->50) | 5102(46->51) | 5206(47->52) | 5310(48->53) | 5414(49->54) | 5518(50->55) | 5622(51->56) | 5726(52->57) | 5830(53->58) | 5934(54->59) | 6038(55->60) | 6142(56->61) | 6246(57->62) | 6350(58->63) | 6454(59->64) | 6558(60->65) | 6662(61->66) | 6766(62->67) | 6870(63->68) | 6974(64->69) | 7078(65->70) | 7182(66->71) | 7286(67->72) | 7390(68->73) | 7494(69->74) | 7598(70->75) | 7702(71->76) | 7806(72->77) | 7910(73->78) | 8014(74->79) | 8118(75->80) | 8222(76->81) | 8326(77->82) | 8430(78->83) | 8534(79->84) | 8638(80->85) | 8742(81->86) | 8846(82->87) | 8950(83->88) | 9054(84->89) | 9158(85->90) | 9262(86->91) | 9366(87->92) | 9470(88->93) | 9574(89->94) | 9678(90->95) | 9782(91->96) | 9886(92->97) | 9990(93->98) | 10094(94->99) | 10099(95->1) | 10201(96->1) | 10303(97->1) | 10405(98->1) | 10507(99->1) | ]
cr the 1-th chain: [ 1->2->7->12->17->22->27->32->37->42->47->52->57->62->67->72->77->82->87->92->97->1 ] (#non-depot=20) {#cumul.=21}
cr the 2-th chain: [ 1->3->8->13->18->23->28->33->38->43->48->53->58->63->68->73->78->83->88->93->98->1 ] (#non-depot=20) {#cumul.=41}
cr the 3-th chain: [ 1->4->9->14->19->24->29->34->39->44->49->54->59->64->69->74->79->84->89->94->99->1 ] (#non-depot=20) {#cumul.=61}
cr the 4-th chain: [ 1->5->10->15->20->25->30->35->40->45->50->55->60->65->70->75->80->85->90->95->1 ] (#non-depot=19) {#cumul.=80}
cr the 5-th chain: [ 1->6->11->16->21->26->31->36->41->46->51->56->61->66->71->76->81->86->91->96->1 ] (#non-depot=19) {#cumul.=99}
c Latest Answer = 0 by 1 loops
c restarts              : 23543
c conflicts             : 4517406        (1256 /sec)
c decisions             : 108307105      (0.00 % random) (30117 /sec)
c propagations          : 31755916358    (8830427 /sec)
c conflict literals     : 637014233      (44.28 % deleted)
c Memory used           : 1463.00 MB
c CPU time              : 3596.19 s
